p edge 30 174
e 1 5
e 1 7
e 1 9
e 1 11
e 1 12
e 1 13
e 1 15
e 1 18
e 1 19
e 1 22
e 1 23
e 1 25
e 1 26
e 1 27
e 1 28
e 2 4
e 2 6
e 2 7
e 2 8
e 2 9
e 2 11
e 2 14
e 2 17
e 2 18
e 2 20
e 2 23
e 2 25
e 2 27
e 2 28
e 2 30
e 3 4
e 3 5
e 3 8
e 3 13
e 3 21
e 3 22
e 3 24
e 3 25
e 4 5
e 4 8
e 4 10
e 4 14
e 4 16
e 4 17
e 4 18
e 4 26
e 4 27
e 5 7
e 5 9
e 5 11
e 5 18
e 5 19
e 5 21
e 5 24
e 5 25
e 5 27
e 5 28
e 5 29
e 6 7
e 6 8
e 6 10
e 6 19
e 6 23
e 6 26
e 6 27
e 6 28
e 7 8
e 7 9
e 7 10
e 7 14
e 7 17
e 7 18
e 7 19
e 7 30
e 8 11
e 8 13
e 8 15
e 8 20
e 8 30
e 9 11
e 9 12
e 9 13
e 9 14
e 9 18
e 9 19
e 9 25
e 9 26
e 9 27
e 9 28
e 10 11
e 10 14
e 10 19
e 10 22
e 10 23
e 10 25
e 10 27
e 10 30
e 11 12
e 11 17
e 11 21
e 11 28
e 12 15
e 12 18
e 12 21
e 12 25
e 12 26
e 12 27
e 12 29
e 13 17
e 13 22
e 13 23
e 13 24
e 13 28
e 13 29
e 13 30
e 14 16
e 14 19
e 14 21
e 14 22
e 14 25
e 14 26
e 14 30
e 15 17
e 15 18
e 16 19
e 16 20
e 16 24
e 16 25
e 16 26
e 16 29
e 17 19
e 17 24
e 17 25
e 17 30
e 18 19
e 18 21
e 18 24
e 18 28
e 19 24
e 19 26
e 19 27
e 19 29
e 20 21
e 20 22
e 20 24
e 20 25
e 20 26
e 20 27
e 20 29
e 20 30
e 21 23
e 21 25
e 21 26
e 21 27
e 21 28
e 22 25
e 22 26
e 22 28
e 23 24
e 23 25
e 23 26
e 23 29
e 23 30
e 24 25
e 24 27
e 24 29
e 24 30
e 25 29
e 25 30
e 26 27
e 26 28
e 26 29
e 27 30
e 29 30